(set-logic LRA) (synth-fun rig_mimic ((Pregnancies Real) (Glucose Real) (BloodPressure Real) (SkinThickness Real) (Insulin Real) (BodyMassIndex Real) (DiabetesPedigreeFunction Real) (Age Real)) 
Bool ((B Bool) (BC Bool) (P Real) (G Real) (BP Real) (ST Real) (I Real) (BMI Real) (DPF Real) (A Real) (PC Bool) (GC Bool) (BPC Bool) (STC Bool) (IC Bool) (BMIC Bool) (DPFC Bool) (AC Bool))((B Bool ((Constant Bool) PC GC BPC STC IC BMIC DPFC AC (ite BC B B) ))(BC Bool (PC GC BPC STC IC BMIC DPFC AC))
(P Real (11.0 7.5 3.0 2.5)) 
(G Real (137.5 99.5 121.84337997436523))
(BP Real (83.0)) 
(ST Real (36.5))
(I Real (117.0)) 
(BMI Real (26.350000381469727 34.25 32.89999961853027 42.20000076293945 35.79999923706055 25.949999809265137 29.050000190734863 33.75)) 
(DPF Real (1.065500020980835 0.2214999943971634 0.18050000071525574 1.0119999945163727 0.37950000166893005 1.5875000357627869 0.2370000034570694 0.22049999982118607))
(A Real (28.5 25.5 24.5))
(PC Bool ((<= P Pregnancies)(>= P Pregnancies))) 
(GC Bool ((<= G Glucose)(>= G Glucose))) 
(BPC Bool ((<= BP BloodPressure)(>= BP BloodPressure)))
(STC Bool ((<= ST SkinThickness)(>= ST SkinThickness))) 
(IC Bool ((<= I Insulin)(>= I Insulin))) 
(BMIC Bool ((<= BMI BodyMassIndex)(>= BMI BodyMassIndex)))
(DPFC Bool ((<= DPF DiabetesPedigreeFunction)(>= DPF DiabetesPedigreeFunction)))
(AC Bool ((<= A Age)(>= A Age)))))